20,1,9,1,16,2,2,1,4,1,3,2,4,2,7,4,3,3,4,3,10,3,4,4,6,3,6,4,8,3,4,5,10,5,12,5,17,5;7,1,1,2,15,1,16,1,10,1,20,2,19,1,5,3,17,1,18,2,13,1,2,2,20,4,14,3,8,2,9,4,17,3,19,5,18,5,12,4,8,4,2,5;3,1,5,1,6,1,11,2,19,2,10,2,7,3,8,1,15,3,9,3,13,2,12,1,18,4,13,3,13,4,16,4,3,5,11,5,9,5;1,1,18,1,14,1,6,2,5,4,9,2,19,4,16,3,1,4,17,2,2,3,15,4,2,4,15,5,12,2,17,4,14,5,8,5,6,5,16,5;11,1,1,3,7,2,5,2,15,2,20,3,19,3,14,2,11,3,18,3,7,5,1,5,10,4,3,4,14,4,11,4,12,3,5,5,20,5,13,5;
